c Random 4-CNF over 20 variables and 120 clauses
c Generated with `cnfgen`
c (C) 2012-2016 Massimo Lauria <lauria.massimo@gmail.com>
c https://massimolauria.github.io/cnfgen
c
c COMMAND LINE: cnfgen --output tmp-4-20-120.dimacs --output-format dimacs randkcnf 4 20 120
c
c sdimacs generated by gen-sdimacs
c
p cnf 20 120
r 0.5 1 2 3 4 5 6 7 8 9 10 0
e  11 12 13 14 15 16 17 18 19 20 0
-5 8 11 -13 0
-1 2 12 13 0
8 -10 15 19 0
4 12 14 -20 0
7 -9 -13 -18 0
3 5 -7 -10 0
9 13 16 -19 0
-1 -10 -11 16 0
-5 -7 8 17 0
2 -17 18 19 0
9 -10 12 16 0
3 5 -6 9 0
3 6 -17 18 0
-2 -3 12 13 0
6 -7 -9 -13 0
-1 -2 -18 -19 0
1 -2 -9 19 0
2 4 8 9 0
-6 -10 13 19 0
-8 -9 12 -14 0
4 5 -8 -16 0
1 -3 8 -16 0
1 -12 14 -16 0
7 9 -12 16 0
2 -10 -12 18 0
-1 7 18 20 0
-1 -2 5 6 0
2 6 -9 -16 0
1 2 9 17 0
3 -5 -14 15 0
-2 -13 -15 16 0
-1 12 13 17 0
-3 8 -9 -16 0
-3 -7 -13 -18 0
2 3 4 -12 0
-4 7 14 -18 0
9 -13 14 16 0
6 11 -14 -20 0
1 7 -15 18 0
-4 7 -9 -16 0
11 -12 -16 19 0
-4 12 14 18 0
-7 -8 16 -17 0
-2 9 -18 -20 0
12 -13 -17 18 0
1 5 -6 18 0
-2 -9 -11 17 0
-5 -10 15 -16 0
-3 -12 -17 -19 0
-4 -6 13 -16 0
2 -9 -11 -12 0
-3 5 10 -17 0
7 9 12 20 0
6 -7 15 18 0
1 8 -9 -15 0
5 10 -11 -16 0
1 4 -15 17 0
-2 3 13 20 0
-5 16 -18 20 0
3 7 15 18 0
-4 -10 -14 17 0
14 17 19 20 0
-1 -4 -8 -14 0
-12 16 -19 -20 0
5 8 -10 -11 0
-5 -7 -13 -17 0
4 5 -13 16 0
-3 16 19 20 0
6 12 -13 -17 0
-1 6 -9 13 0
4 9 13 -18 0
-11 -17 -18 20 0
1 7 16 17 0
-8 12 -13 18 0
-3 10 14 -17 0
8 13 -14 -18 0
-1 -4 9 -20 0
6 -9 13 -18 0
6 -12 16 -19 0
-7 10 16 -18 0
2 3 13 19 0
-3 -9 -11 -14 0
-9 -10 -13 19 0
-2 5 -8 -9 0
-3 -13 -17 20 0
10 12 -14 15 0
10 12 -18 -20 0
2 -3 10 -16 0
-7 12 15 -17 0
-11 14 -17 20 0
-4 -11 19 20 0
-6 -14 -18 20 0
1 -5 11 20 0
-4 -11 -12 17 0
-1 8 -12 -19 0
-3 -6 -8 18 0
6 -7 -11 -16 0
-3 -5 15 20 0
-1 7 -10 14 0
-2 -13 -14 -18 0
-1 -7 -13 19 0
-2 -9 15 -16 0
-14 16 -18 20 0
3 -5 -6 8 0
-1 5 13 -14 0
2 -12 -18 20 0
7 -14 16 -17 0
10 -13 -15 20 0
-13 -15 -17 -20 0
3 9 16 -20 0
2 10 13 -16 0
-3 13 -17 18 0
-1 3 10 19 0
-1 5 -8 20 0
6 -12 16 17 0
6 8 16 20 0
4 5 -18 -20 0
-10 -15 17 -18 0
7 8 9 16 0
5 -8 -12 -15 0
